1500
Lattice="50.0 0.0 0.0 0.0 50.0 0.0 0.0 0.0 50.0" Properties=species:S:1:pos:R:3 pbc="T T T"
C        7.46410615      25.64023082       6.79598020
O        6.63502099      25.19493080       6.11780200
O        8.29319132      26.08553085       7.47415840
C       47.84630017      41.26664532      16.91076562
O       48.22830070      42.02232845      17.70362034
O       47.46429965      40.51096219      16.11791090
C       46.67192354       7.24973475      37.27901055
O       45.78688322       6.78394621      37.86667088
O       47.55696387       7.71552329      36.69135023
C       42.66198750      15.31589328      48.49151841
O       43.32972913      15.21492111      49.43466512
O       41.99424586      15.41686545      47.54837170
C       30.29324979      16.68822284      33.93243868
O       31.35523280      16.90768634      33.52057965
O       29.23126678      16.46875933      34.34429770
C       30.01839102      13.09915280       7.47074503
O       29.28583948      12.41215655       6.89022423
O       30.75094256      13.78614905       8.05126582
C       32.45395283      41.87818800      38.80159735
O       33.12756363      42.62151717      38.21909393
O       31.78034204      41.13485883      39.38410078
C       21.89321788      28.71087950      18.66346118
O       22.11335195      29.50611118      17.84814065
O       21.67308382      27.91564781      19.47878170
C       38.36205085      49.35621359      40.40005397
O       39.09701710      49.27783145      39.50602888
O       37.62708461      49.43459574      41.29407905
C       36.93353375      28.92274963      22.53677834
O       37.18410020      29.82399469      23.22276215
O       36.68296731      28.02150457      21.85079452
C       40.83672298      44.09174994      21.17581964
O       41.16861977      43.37068634      22.02169894
O       40.50482618      44.81281355      20.32994034
C       27.46032247       9.64385913      16.66084432
O       27.32391069      10.73516476      16.29200309
O       27.59673424       8.55255350      17.02968554
C       34.19156095      26.18065590      23.21862848
O       33.16223299      26.70638295      23.12016520
O       35.22088890      25.65492884      23.31709175
C       14.96667252      32.42836393       3.23579539
O       15.92701636      31.92066578       2.82887734
O       14.00632868      32.93606208       3.64271345
C       24.45240624      17.68425408       4.81010099
O       25.40984097      17.27677334       4.29738452
O       23.49497151      18.09173482       5.32281747
C       31.29613746      12.49311491      21.36281208
O       31.55510472      11.58713323      22.03937187
O       31.03717020      13.39909659      20.68625229
C        0.99375268      19.52090153      44.76510143
O        1.08847993      18.36710279      44.83841735
O        0.89902543      20.67470026      44.69178551
C       40.48429704      19.10809380      17.84627865
O       41.39105171      18.39624524      17.71717559
O       39.57754238      19.81994236      17.97538171
C        2.48725411      40.18751443      12.67518723
O        2.82083349      40.97942949      13.45441463
O        2.15367474      39.39559936      11.89595984
C       48.14360608      14.21203327      22.81976084
O       47.87807814      15.15721604      22.20192232
O       48.40913403      13.26685050      23.43759937
C       19.97457805      18.64356862      21.44891057
O       19.87176912      18.30232588      22.55280536
O       20.07738697      18.98481137      20.34501577
C       18.77908598      36.26436633      37.08398223
O       18.21731588      35.59854840      37.84994622
O       19.34085608      36.93018425      36.31801823
C       47.96705892      21.74671684       9.15798799
O       47.85881001      20.93883813       9.98334498
O       48.07530784      22.55459555       8.33263100
C       14.00942469      45.47900149      43.30997619
O       13.95536038      46.00487955      44.34251157
O       14.06348901      44.95312342      42.27744081
C        1.31008140       4.70717274      23.68764879
O        1.80889765       5.30628523      24.54662875
O        0.81126515       4.10806025      22.82866883
C       38.93310585       9.20056573      10.31051949
O       39.19399429       9.10514897       9.18427224
O       38.67221740       9.29598248      11.43676674
C        5.87105234      34.10301844       1.00332442
O        6.40373936      34.61733106       0.11039269
O        5.33836532      33.58870582       1.89625615
C       28.86234742      19.30021114      24.08707856
O       28.23624449      18.81038778      23.24228971
O       29.48845035      19.79003450      24.93186741
C       20.59852643      24.87320498      42.33512691
O       20.36058316      23.83903237      41.86665064
O       20.83646970      25.90737759      42.80360317
C       33.97745702      18.22277938      48.96233618
O       33.86376116      17.53014907      48.03879057
O       34.09115287      18.91540969      49.88588180
C       27.56952708      15.73903064      33.45964178
O       28.70256825      15.51395421      33.35400896
O       26.43648590      15.96410706      33.56527461
C       18.26969999       5.41155450       7.09844040
O       18.75165501       6.38958834       7.49438126
O       17.78774497       4.43352066       6.70249954
C        6.26396823      26.81030705      17.92332098
O        6.00528011      27.27359517      18.95484634
O        6.52265636      26.34701892      16.89179562
C       40.36216374      35.46308632      14.83518179
O       41.43667328      35.19526757      14.48978005
O       39.28765420      35.73090507      15.18058354
C       39.17024123      18.84293014      24.27876889
O       39.03190578      17.70262265      24.11702171
O       39.30857668      19.98323762      24.44051607
C       10.92037521      16.47908626      25.89299805
O       11.77817214      15.71555553      26.05672112
O       10.06257827      17.24261699      25.72927498
C       41.46420890       9.35029548      27.40190727
O       42.05547966       9.00850077      28.33955073
O       40.87293813       9.69209018      26.46426380
C       31.51693798       7.46215516      34.71244920
O       32.22552665       6.54694428      34.78920290
O       30.80834931       8.37736605      34.63569549
C       13.17493427       1.47787873      16.53455423
O       13.13960248       1.96122640      17.58846442
O       13.21026606       0.99453106      15.48064404
C        3.62308949      13.24470502      46.54460229
O        2.89792737      12.37134203      46.30590379
O        4.34825162      14.11806802      46.78330079
C       37.48875846      12.19392551      30.45491835
O       36.80890430      12.21526255      29.51526786
O       38.16861263      12.17258846      31.39456884
C       44.18210502      24.38042848      29.52092142
O       45.03221308      23.67799116      29.16106299
O       43.33199695      25.08286579      29.88077986
C       35.93230525      41.90608187      18.12964697
O       36.57790982      41.80832586      17.17087770
O       35.28670068      42.00383788      19.08841623
C       49.27927796      37.42666529      32.41292356
O       48.89612690      37.73079022      33.46473309
O       49.66242901      37.12254036      31.36111402
C       21.64562779      32.22986674       3.26055725
O       22.00862282      33.32234310       3.11797391
O       21.28263276      31.13739038       3.40314059
C       13.87007145       2.19424941       6.61453933
O       13.65027550       3.30216503       6.87876032
O       14.08986740       1.08633380       6.35031833
C        4.26516232      39.60568558       7.15379959
O        5.25652026      39.01821617       7.02079910
O        3.27380437      40.19315498       7.28680008
C       49.64560894      25.00079919       3.86072819
O       49.34532637      26.11547230       3.74699940
O       49.94589152      23.88612609       3.97445699
C        0.32465231      46.38700418      34.97184567
O       49.48467158      45.82943372      35.54555950
O        1.16463304      46.94457463      34.39813183
C       24.78640713       4.03461532      25.29448315
O       24.35303550       5.02013439      25.72638730
O       25.21977876       3.04909626      24.86257899
C       22.93200473      40.87089524      32.32950302
O       23.95429180      41.31069905      32.65676707
O       21.90971766      40.43109142      32.00223897
C       13.61389362      30.54155816       2.10337792
O       13.53678972      31.69899273       2.10291370
O       13.69099751      29.38412359       2.10384214
C       27.24931040      21.22019550       9.41456377
O       26.26486883      21.30933274      10.02162994
O       28.23375198      21.13105827       8.80749760
C       46.47421066      18.12987992       4.63739919
O       46.06571717      18.02803095       3.55649223
O       46.88270415      18.23172890       5.71830615
C       35.36096567       1.94239240      28.43349111
O       35.20224222       0.82445429      28.16774454
O       35.51968912       3.06033052      28.69923767
C        1.16452987      23.50690323      44.93783068
O        0.59363576      24.16615793      45.70272490
O        1.73542399      22.84764854      44.17293647
C       38.99719517       4.74016711      28.37774241
O       39.26880728       3.77134248      27.80050267
O       38.72558307       5.70899173      28.95498214
C       23.59599543      48.90844659      16.83217995
O       23.62523545      47.99824247      17.55070167
O       23.56675542      49.81865072      16.11365822
C       11.17777828      41.78237297      46.10378534
O       11.49649909      42.35610407      47.06026308
O       10.85905747      41.20864188      45.14730759
C        0.62999277      31.38523498      17.64883689
O       49.60418409      31.01656060      18.04556821
O        1.65580146      31.75390936      17.25210557
C        2.41726009      28.45010924      47.55345078
O        3.24909865      28.28643135      48.34519200
O        1.58542153      28.61378714      46.76170956
C       41.34097173      30.05590761      28.57752055
O       41.06882286      29.55543010      29.58799433
O       41.61312060      30.55638511      27.56704677
C       36.90918000       7.61547860      31.58449159
O       37.48262901       6.85093859      32.24193726
O       36.33573100       8.38001861      30.92704592
C        6.89062494      31.68951764      20.22700303
O        7.96494914      31.91448385      20.60225992
O        5.81630075      31.46455144      19.85174615
C       41.92453433       5.28981330      28.40093883
O       41.80156909       6.30905686      27.86091836
O       42.04749956       4.27056974      28.94095931
C       18.89934986      37.43861399      23.93435378
O       19.29465205      36.89027826      24.87704360
O       18.50404766      37.98694972      22.99166396
C        0.83552136      39.50194147       0.80473451
O        1.52706709      39.71610729      49.89836952
O        0.14397563      39.28777565       1.71109950
C       17.52375410      25.95575102       3.69586657
O       17.52733459      24.80386759       3.83280355
O       17.52017361      27.10763446       3.55892960
C       40.42869140      25.33203212      30.39445170
O       41.43376664      25.29405779      30.97236320
O       39.42361615      25.37000645      29.81654020
C       41.34106960      43.47845698      14.24424211
O       41.35153296      43.66629707      13.09959954
O       41.33060624      43.29061690      15.38888469
C       33.52755072      38.27267859      29.26017356
O       33.58547376      39.33046658      28.78759607
O       33.46962768      37.21489059      29.73275104
C        3.75721001       3.92674168      14.07456299
O        2.75739096       4.14455617      13.52819433
O        4.75702906       3.70892718      14.62093165
C       28.14367122      27.56579369      25.11316767
O       28.02885125      26.82939954      26.00206588
O       28.25849119      28.30218785      24.22426946
C        2.99874383      45.07400503      17.51685400
O        3.43103396      46.02741733      17.01712384
O        2.56645370      44.12059273      18.01658415
C       44.33427479      13.77826011      33.58024478
O       45.16635184      14.24347531      32.91931921
O       43.50219774      13.31304492      34.24117035
C       17.49610091      36.19963069       9.14368105
O       16.44514729      35.71696466       9.23384753
O       18.54705453      36.68229672       9.05351457
C       48.08728583      41.50524382      31.15361755
O       48.49780243      42.01215554      30.19439045
O       47.67676922      40.99833211      32.11284465
C       17.57173438      29.95731612      42.30235883
O       16.88153228      30.88238767      42.18632574
O       18.26193647      29.03224456      42.41839192
C       18.44884487      39.91538598       1.76340722
O       17.83700623      38.96067053       2.00789011
O       19.06068351      40.87010143       1.51892432
C       49.38742379      27.20315667      11.19900176
O       48.87100114      27.79256619      12.05428188
O       49.90384644      26.61374715      10.34372165
C       42.34540243      32.72705456      45.52103941
O       42.46081311      32.45809015      46.64350924
O       42.22999175      32.99601897      44.39856958
C       41.08260351      20.49575008       0.57716458
O       42.16862967      20.14731045       0.36565339
O       39.99657734      20.84418971       0.78867578
C        6.73350114      22.90162590      40.35349501
O        5.58351389      23.00078836      40.46880384
O        7.88348839      22.80246344      40.23818618
C       41.35148522       6.55508978       9.82552136
O       42.09965927       7.31253738       9.36496874
O       40.60331117       5.79764218      10.28607399
C        1.31274556      21.88368292      45.17856598
O        0.69521552      21.47214961      46.07013594
O        1.93027560      22.29521622      44.28699602
C       10.67722081       3.89044261       8.77393999
O       10.03963256       4.04381418       7.81709184
O       11.31480907       3.73707104       9.73078814
C       33.33763128       3.98167018      37.66174874
O       33.62690410       4.92668594      37.05440497
O       33.04835846       3.03665443      38.26909252
C       34.70014977      34.40245099       5.22482085
O       35.36565776      34.77025815       6.10084426
O       34.03464178      34.03464383       4.34879744
C       20.93568053      15.12128792      42.54351950
O       21.41393516      15.95173305      43.19715042
O       20.45742590      14.29084278      41.88988857
C       10.97506618      19.73820992      30.53477851
O       10.05925964      19.02905818      30.47151571
O       11.89087273      20.44736166      30.59804132
C        9.83414666       4.11910395      18.89664240
O       10.21902119       3.74140321      19.92368366
O        9.44927213       4.49680469      17.86960114
C        7.62741242      15.26316525      47.10313554
O        7.59266654      14.24631133      46.54599926
O        7.66215830      16.28001918      47.66027181
C       23.81466136      37.48735381      30.90519993
O       23.78178148      36.73816909      31.79020907
O       23.84754124      38.23653852      30.02019079
C        9.13456856      15.03420118      34.09522813
O        9.90237001      14.45424409      34.74309442
O        8.36676712      15.61415827      33.44736185
C       34.94184057      29.44120814      44.30456808
O       33.98681779      28.80761190      44.12543878
O       35.89686334      30.07480438      44.48369737
C       13.25103136      35.36014043      38.63731943
O       13.81424634      35.66843714      37.67122314
O       12.68781639      35.05184373      39.60341571
C       43.73335676      24.30146981      45.69413330
O       43.97686227      25.00191860      44.80212627
O       43.48985124      23.60102102      46.58614034
C        5.87386307      23.95619375      16.88368150
O        5.50207569      23.21674869      16.07091145
O        6.24565044      24.69563881      17.69645155
C       47.20757055       9.26608567      13.38262696
O       47.84954383      10.19577075      13.11965176
O       46.56559727       8.33640058      13.64560216
C        7.20590586      16.21035950      36.46740016
O        7.16774696      17.11352553      35.74046480
O        7.24406475      15.30719347      37.19433553
C       12.17505746      42.45826546      34.69670998
O       13.05229849      43.03983701      34.20903929
O       11.29781643      41.87669391      35.18438066
C       17.20805585      29.47572590      22.27801812
O       17.51256517      30.00754556      21.29311105
O       16.90354653      28.94390625      23.26292519
C       23.94845952      46.44966337      29.63247950
O       23.36619756      47.44312058      29.77252871
O       24.53072148      45.45620616      29.49243029
C       41.88764652      27.86192046      33.20052359
O       41.46533699      28.16131447      34.23860735
O       42.30995604      27.56252644      32.16243983
C       19.31238041      19.51727017      30.70996429
O       19.35400014      20.63428237      30.39988118
O       19.27076067      18.40025797      31.02004740
C        9.33987028       8.77200384      30.80862955
O        8.53155941       9.53103856      30.46789534
O       10.14818116       8.01296911      31.14936377
C        4.14893351      26.40615275      34.56244399
O        4.23566118      26.12841113      35.68535891
O        4.06220584      26.68389437      33.43952908
C       13.18676995      42.05492048       8.89311766
O       12.89452768      43.16830241       8.74967733
O       13.47901222      40.94153855       9.03655799
C       32.36589354      29.53866471      15.25027868
O       32.18773553      29.21417062      14.15093192
O       32.54405155      29.86315881      16.34962545
C       33.00480191      40.04030490      19.44552426
O       32.42649231      39.03679612      19.50977486
O       33.58311151      41.04381368      19.38127367
C       31.92937474      15.36178269      17.87472974
O       32.05927647      15.51354585      19.01739919
O       31.79947302      15.21001953      16.73206028
C        3.38131423      38.83780951      32.90277743
O        3.21239913      38.80430881      31.75563080
O        3.55022933      38.87131022      34.04992406
C       33.56843349      26.65973787      26.28994426
O       32.67710967      26.11958584      25.78065295
O       34.45975731      27.19988989      26.79923556
C       31.07395672      29.04570702      27.12675411
O       30.52374406      28.40114108      27.91884046
O       31.62416937      29.69027297      26.33466777
C       38.34663329       2.73162629      46.47929129
O       38.39639579       2.72826455      47.63821855
O       38.29687079       2.73498803      45.32036403
C       28.68170344       4.86069962      17.73976596
O       27.86984490       4.10443349      18.07821426
O       29.49356198       5.61696576      17.40131767
C       49.77152329       4.20904481       0.65380527
O       49.91535235       3.58969755      49.68358768
O       49.62769423       4.82839206       1.62402286
C       39.10004371      36.05855879      23.89620460
O       39.18360596      35.28428618      24.75592507
O       39.01648145      36.83283139      23.03648413
C        2.26726694       0.43059296      28.82883556
O        2.51536079      49.95648584      29.85804490
O        2.01917308       0.90470009      27.79962622
C       12.60649260      46.12124378      27.51147521
O       12.17114179      46.16698425      28.58570865
O       13.04184341      46.07550332      26.43724177
C       30.87657607      49.97064601      48.95382815
O       30.96236910       1.08760951      48.65277648
O       30.79078305      48.85368252      49.25487982
C       49.88983327      40.21012295      16.39926237
O        1.02950600      40.23203134      16.18416682
O       48.75016054      40.18821456      16.61435793
C       28.04432875      21.41523479      18.63453921
O       27.96922179      20.34295586      18.19844651
O       28.11943571      22.48751373      19.07063190
C       27.51781308      24.66141354      36.56113937
O       27.04706743      23.95624302      35.76947463
O       27.98855873      25.36658406      37.35280412
C       45.10816138      45.78708491      38.49868247
O       45.76388888      45.17896317      37.75989333
O       44.45243389      46.39520666      39.23747162
C        6.68721524      48.91806403       3.92754961
O        6.64425674      47.81924528       3.55829102
O        6.73017374       0.01688279       4.29680820
C       45.40413762      40.10551063      43.85919876
O       46.19913506      39.99258992      44.69635345
O       44.60914017      40.21843135      43.02204407
C       24.53068817      16.62416195       4.85814217
O       24.80211867      17.15390226       5.85378302
O       24.25925767      16.09442165       3.86250133
C       41.08609503       1.14115058       1.29445138
O       41.89557567       1.62812643       0.62125333
O       40.27661440       0.65417474       1.96764944
C       22.96437391      38.07037141       6.39262631
O       22.00140661      37.49887339       6.69541996
O       23.92734121      38.64186943       6.08983266
C       25.07228918       5.61636367      20.76684300
O       26.08020044       5.30322814      21.24815478
O       24.06437791       5.92949919      20.28553122
C       40.85928161      39.61671053      19.60766822
O       40.12881902      40.42210909      20.01184339
O       41.58974419      38.81131197      19.20349304
C       43.47385075      46.07939579      20.72364480
O       43.16385065      46.53190142      21.74576935
O       43.78385085      45.62689016      19.70152025
C       41.07969132      29.69014753      10.49283141
O       41.37844533      29.67343538      11.61357525
O       40.78093732      29.70685968       9.37208757
C       37.73676674      49.66410468      29.12044811
O       38.78345295      49.23796075      28.85881988
O       36.69008053       0.09024861      29.38207633
C       33.39017537      18.58602304       5.91078665
O       32.36077640      19.09998183       5.76319222
O       34.41957435      18.07206424       6.05838109
C        7.45825898      47.43571226      13.42712853
O        6.41384779      47.75848101      13.81523367
O        8.50267017      47.11294352      13.03902339
C       44.05790222      23.09283290      37.90726235
O       44.59138137      22.06897469      37.79450427
O       43.52442308      24.11669110      38.02002042
C       23.02858717      41.31416162      43.50636371
O       23.17250179      40.18755947      43.74227935
O       22.88467256      42.44076377      43.27044808
C       35.58517186      37.57117883      17.60592703
O       34.78321392      37.27209614      18.38887850
O       36.38712981      37.87026153      16.82297557
C       41.92530083      17.11253206      20.65679398
O       41.36730765      16.72887274      19.71496113
O       42.48329402      17.49619139      21.59862684
C       38.57015711      10.52281697       0.92730621
O       38.92980382      11.54937240       0.52427000
O       38.21051040       9.49626154       1.33034242
C       30.87233385      44.88983698      19.34448064
O       30.08885024      44.30559974      19.96931684
O       31.65581747      45.47407422      18.71964445
C       49.88451186       0.23164158      40.07315924
O        0.80055324      49.91909458      40.71252030
O       48.96847047       0.54418858      39.43379819
C        3.84805679      30.20939363       6.01187621
O        3.16611304      31.02962886       5.55606167
O        4.53000054      29.38915841       6.46769075
C       24.19190793      18.77506809      14.06362320
O       25.17559452      18.29652676      14.44957514
O       23.20822135      19.25360941      13.67767126
C       49.49093022      10.56306708      31.10238472
O       49.92432116      11.60746397      30.84352679
O       49.05753928       9.51867019      31.36124265
C       33.57260921       8.53944850      46.52950634
O       33.43754982       8.82436013      47.64583260
O       33.70766860       8.25453687      45.41318007
C        9.45448901      11.78733656      19.98300809
O        9.75154680      11.34344230      18.95329233
O        9.15743122      12.23123082      21.01272385
C        3.49295945      36.88750132      49.85342551
O        2.79867325      37.42872211      49.09801388
O        4.18724566      36.34628053       0.60883713
C       22.95560293       1.07354249      10.59719203
O       23.59623418       0.35068455       9.95479963
O       22.31497168       1.79640043      11.23958443
C       27.71256208      43.45048631       8.81205708
O       27.47793660      42.39101163       8.40210065
O       27.94718756      44.50996100       9.22201351
C       26.47319203      12.69490053      28.93665539
O       27.08617084      12.64361718      27.95317839
O       25.86021323      12.74618387      29.92013239
C       14.37371328       5.82455893      30.97827156
O       13.70169067       6.02772263      31.90169461
O       15.04573589       5.62139523      30.05484851
C       19.81511791       1.62027339       4.82199771
O       19.58236666       2.12748759       5.83893459
O       20.04786917       1.11305920       3.80506083
C       25.66582138      11.47409476      44.67691719
O       26.07612489      10.67623501      45.41222044
O       25.25551788      12.27195450      43.94161394
C        3.13808318      26.74986384      45.99445744
O        3.75827081      26.56982194      45.03084330
O        2.51789555      26.92990574      46.95807159
C       43.13834402      20.41732507      44.99911118
O       44.28552491      20.37049660      45.16458957
O       41.99116313      20.46415353      44.83363280
C       31.53981332      22.62089514      46.56191717
O       32.54906353      22.88083493      46.05255940
O       30.53056311      22.36095536      47.07127493
C        9.34035545      10.50700060       1.69909244
O        8.33041238      10.32206353       1.15926536
O       10.35029852      10.69193767       2.23891951
C       16.85799726      14.94641007      20.51227194
O       16.18719730      15.61547326      21.18158641
O       17.52879721      14.27734687      19.84295747
C        8.78758088      25.60323290      37.52006928
O        9.72721695      26.00631899      38.06797955
O        7.84794481      25.20014681      36.97215902
C       10.24897087      32.71312701       7.31058763
O        9.56489973      32.67283917       8.24654894
O       10.93304201      32.75341486       6.37462633
C        1.00062110      30.34653594      21.29455961
O        1.77581301      31.13731147      21.64003258
O        0.22542919      29.55576042      20.94908663
C        9.03607265      23.14791347      44.49036799
O       10.12838710      23.44630056      44.74218994
O        7.94375820      22.84952638      44.23854605
C        8.60100963      23.25170746      10.12389983
O        8.99833280      22.16280234      10.07895629
O        8.20368645      24.34061259      10.16884337
C       13.19367736      15.70715235      46.67412191
O       14.34452708      15.69785557      46.52900644
O       12.04282765      15.71644913      46.81923738
C       40.67446777       3.94176825      24.06455205
O       41.62840087       4.14416058      24.69276299
O       39.72053467       3.73937592      23.43634111
C       38.69314310      14.15121945      10.12464369
O       39.06472217      13.16263126       9.64482873
O       38.32156403      15.13980763      10.60445866
C       13.74586567      17.41543717      39.20789417
O       14.72364170      17.92955558      39.56178158
O       12.76808964      16.90131875      38.85400677
C        0.70770913      45.44894638       6.95114949
O       49.88198046      45.64257307       7.74252858
O        1.53343780      45.25531969       6.15977040
C       10.56091572      25.87870676      12.61423118
O        9.57575199      25.88808996      13.22657453
O       11.54607945      25.86932356      12.00188783
C       21.17613075       7.08393672      25.43301849
O       20.23313914       6.55698919      25.01029738
O       22.11912236       7.61088424      25.85573959
C       46.69414110      46.98479268      40.48292768
O       45.54172787      47.06094964      40.37455860
O       47.84655434      46.90863571      40.59129675
C        9.26684540       0.86572976      39.65864246
O        9.87753234       0.98362791      38.67947879
O        8.65615846       0.74783160      40.63780613
C       22.34525586      15.58921489       5.99139374
O       23.42820217      15.89373599       5.70838458
O       21.26230955      15.28469378       6.27440291
C       41.21948081       9.61364439       5.84251450
O       41.42883928       9.03907663       4.85679602
O       41.01012234      10.18821214       6.82823299
C       12.54339149      46.36132799      14.20800820
O       12.31930901      45.68558465      15.12384551
O       12.76747396      47.03707132      13.29217088
C        0.56261257      23.29572579       3.36715811
O        0.03927853      23.70180607       4.31942923
O        1.08594661      22.88964551       2.41488699
C       25.47820294      45.49696678      48.53968923
O       24.32567749      45.36553126      48.54282020
O       26.63072838      45.62840230      48.53655826
C       27.89100805      37.60037619      44.55452774
O       27.78024856      36.67484350      43.86407747
O       28.00176754      38.52590889      45.24497800
C        2.61516888      31.99100068      39.48953851
O        2.69319746      31.99303633      38.33216761
O        2.53714029      31.98896503      40.64690940
C       17.68467576       7.26655875      35.96482889
O       17.59136295       6.19238560      35.53699158
O       17.77798858       8.34073190      36.39266619
C       28.84264162      29.27506495      47.18278174
O       28.95691109      28.91118645      48.27828844
O       28.72837215      29.63894345      46.08727504
C       28.65499676      23.30921498      20.74387947
O       29.54459201      23.28942585      21.48807613
O       27.76540150      23.32900411      19.99968281
C       29.93664000      47.98435421      49.82842987
O       29.01117346      47.33454804      49.56984986
O       30.86210655      48.63416037       0.08700989
C       43.46870761       3.88288379      45.53090953
O       43.98572012       3.33834982      46.41509323
O       42.95169510       4.42741776      44.64672582
C       35.89868155      35.42177006      29.17421735
O       35.84103550      35.14584222      30.29944655
O       35.95632760      35.69769791      28.04898814
C       15.03670415      23.10912640       4.28580103
O       16.11399960      23.43774921       4.00823738
O       13.95940871      22.78050360       4.56336469
C        2.64582705       0.91138876      15.34983932
O        2.74048936       1.98163129      14.91255226
O        2.55116474      49.84114623      15.78712638
C       15.30475083      22.33655472      15.65516797
O       15.16980614      21.52212384      14.84024941
O       15.43969551      23.15098561      16.47008654
C        7.72072931      27.99250406      38.49146742
O        8.68515977      27.34821083      38.51044424
O        6.75629885      28.63679729      38.47249061
C        4.17384809      26.78500162      41.69389478
O        4.97410848      26.87322587      40.85879012
O        3.37358770      26.69677736      42.52899943
C       13.42740834      45.00761471      40.66617869
O       14.29274763      44.28467203      40.39388879
O       12.56206904      45.73055739      40.93846858
C       25.07729551      37.43028374      30.62939523
O       25.06218338      36.39990211      31.16201642
O       25.09240765      38.46066536      30.09677404
C        3.05672704      28.79580838      43.55267833
O        2.07837974      28.74241986      42.93172243
O        4.03507434      28.84919689      44.17363423
C       11.50754273      13.68192198      36.44984687
O       11.10025785      13.15668942      37.40055702
O       11.91482762      14.20715453      35.49913672
C       31.20990433       0.69415247      47.56616495
O       31.81495409       0.29355111      46.66116035
O       30.60485456       1.09475382      48.47116956
C        7.55744212      49.71898760       1.53094628
O        6.91861709       0.42299046       0.86620380
O        8.19626715      49.01498474       2.19568875
C        6.22718024      47.35526053      48.82074946
O        5.59229142      46.77872933      48.03964258
O        6.86206906      47.93179173      49.60185634
C       42.26324417      22.00631390       6.36973567
O       41.81732862      20.96411488       6.12360458
O       42.70915972      23.04851292       6.61586677
C       24.63337993      15.96967285      35.35220084
O       25.06483822      16.93757919      35.82400701
O       24.20192163      15.00176650      34.88039468
C        4.96337696      16.53529443       4.36337494
O        4.86867217      17.02167666       3.31453590
O        5.05808174      16.04891220       5.41221398
C       46.97043396      10.84739357      17.35305916
O       45.87207806      10.57913103      17.61238432
O       48.06878986      11.11565611      17.09373401
C       20.16183323      21.23217676      22.02196531
O       19.69261838      20.29014186      22.50982561
O       20.63104809      22.17421166      21.53410502
C       46.51501794      36.81838723      10.79293280
O       46.31175351      35.81939725      11.34637891
O       46.71828237      37.81737721      10.23948669
C       14.51907449       2.83830537      18.00844560
O       15.43653048       3.53504987      18.14417184
O       13.60161851       2.14156087      17.87271935
C       22.43531933      21.63468374      43.31030764
O       21.86109477      21.73056854      44.31363822
O       23.00954389      21.53879895      42.30697705
C       38.18849561      16.78762464       9.54538960
O       38.00718719      15.85845655       8.87503602
O       38.36980403      17.71679273      10.21574318
C       30.37925638      46.47134341       2.93652422
O       29.63674284      47.22895891       2.46717106
O       31.12176992      45.71372790       3.40587739
C       42.64259718      35.68463520       8.20119662
O       41.89075914      36.44914169       7.75862529
O       43.39443523      34.92012871       8.64376795
C        9.86043218      20.93041508      44.56867923
O       10.08677067      20.76357543      43.44327467
O        9.63409368      21.09725473      45.69408379
C       11.33488928      10.08119102       0.07234086
O       11.50426638      10.29996614      48.94582018
O       11.16551217       9.86241589       1.19886154
C        3.47732336       8.92542011      44.72971855
O        3.48922588       9.11348818      45.87430963
O        3.46542085       8.73735203      43.58512748
C       33.84744793      43.04488048       5.19858485
O       33.07761067      43.73027662       5.73073401
O       34.61728520      42.35948435       4.66643569
C        2.25167852      47.86576437      15.49276418
O        3.00197711      48.68501711      15.15888251
O        1.50137993      47.04651162      15.82664585
C       21.32538723      23.46135155      43.26008250
O       21.69121838      22.67380701      44.02919963
O       20.95955607      24.24889609      42.49096537
C       35.97919230      33.93085224      38.90363203
O       36.18364249      34.97127900      38.43319364
O       35.77474211      32.89042549      39.37407042
C       11.51317271      48.65007767      25.97571834
O       12.48449994      49.11642261      26.40542267
O       10.54184548      48.18373272      25.54601402
C       21.08816870      41.23074871       3.34404609
O       20.97379944      42.16618483       4.02041798
O       21.20253796      40.29531258       2.66767420
C       30.82698957      18.74675823      39.75390366
O       31.90198926      19.07802880      39.47064496
O       29.75198989      18.41548766      40.03716237
C       18.52109076      44.81567797      41.71934979
O       19.21721054      44.76615650      42.64593755
O       17.82497097      44.86519943      40.79276204
C       29.38040002       6.94902057      48.04823661
O       29.28841612       5.87214324      47.62695976
O       29.47238392       8.02589790      48.46951346
C       40.54154097      10.55786975      38.24524018
O       40.41049530      11.70584764      38.34806920
O       40.67258664       9.40989187      38.14241115
C       20.65677596      21.30595351      29.33477695
O       19.89809657      22.12394425      29.01713447
O       21.41545535      20.48796278      29.65241943
C       16.77241056      40.41137673      42.68257213
O       16.43349056      39.57803226      41.95026739
O       17.11133057      41.24472120      43.41487686
C       39.94551326      49.15869640      41.80000445
O       39.38818551      48.42216219      41.09821877
O       40.50284100      49.89523061      42.50179013
C       19.76783133      30.20512109      34.06139292
O       19.65222198      29.13889251      34.50342357
O       19.88344067      31.27134967      33.61936227
C        3.92856930      25.39538176      45.99555861
O        2.88436049      25.48781342      45.49888531
O        4.97277810      25.30295011      46.49223190
C       22.43402268       6.08689084       1.28714045
O       22.52887998       5.58946545       2.33077356
O       22.33916538       6.58431623       0.24350734
C       21.95003126      41.69333756      49.87159562
O       21.92382588      41.03232596       0.82447386
O       21.97623665      42.35434916      48.91871738
C        5.67394475      22.60944988       5.83562796
O        5.26567856      21.52378802       5.81959479
O        6.08221093      23.69511173       5.85166113
C       47.21291390      37.38801291      26.83507514
O       47.10435241      36.66422672      27.73504623
O       47.32147539      38.11179910      25.93510406
C       41.55261010      27.32455498      40.04879100
O       41.57645140      28.11814149      39.20306525
O       41.52876880      26.53096846      40.89451674
C        0.61914740      11.21752346      12.60969578
O        1.58099686      10.69709316      12.99647466
O       49.65729793      11.73795377      12.22291691
C       24.90087115      17.00781816      25.04273878
O       24.28279965      17.43691675      25.92561024
O       25.51894266      16.57871956      24.15986732
C       48.84272886      30.55899291      22.50173959
O       49.33925791      31.59196641      22.32278527
O       48.34619981      29.52601941      22.68069392
C        2.14283035      44.05652093       9.01434418
O        3.08606217      44.72209236       9.12804726
O        1.19959852      43.39094949       8.90064111
C       47.97238763      36.20347001      10.42789339
O       49.09262200      35.91632512      10.51857285
O       46.85215325      36.49061489      10.33721393
C       18.39852682      17.40523938      18.35358074
O       17.79209652      17.60210270      17.38451566
O       19.00495711      17.20837606      19.32264582
C       34.37615609       6.89118763      35.74740288
O       33.27145990       7.16289495      35.52063985
O       35.48085227       6.61948031      35.97416591
C        9.45398978      38.07993158      32.96251684
O        8.78705251      39.02688025      32.89861937
O       10.12092705      37.13298290      33.02641431
C       47.18902619      44.89163999      32.70276566
O       46.47294956      44.52078156      33.53661114
O       47.90510282      45.26249841      31.86892017
C       19.20413533      42.88491823      41.30642654
O       19.36438104      42.51500863      40.21872796
O       19.04388962      43.25482783      42.39412512
C       33.55180140       5.03120194      21.63527456
O       33.22962210       6.13592831      21.78149410
O       33.87398069       3.92647557      21.48905502
C       11.38828710      27.06063466      47.80355917
O       10.67678791      26.64450703      48.61977403
O       12.09978628      27.47676229      46.98734430
C       49.96034558      21.84547946      49.50417976
O       49.81756710      22.82637041       0.10673037
O        0.10312407      20.86458850      48.90162915
C       46.79242056      16.02381096      44.66272449
O       47.65339504      16.05891558      45.43931358
O       45.93144608      15.98870635      43.88613540
C       14.25474173      19.05460659      21.83543338
O       14.15072238      20.18576060      21.60033645
O       14.35876108      17.92345257      22.07053031
C       23.11837149       7.75585565      20.50052524
O       23.85621776       6.91033489      20.79425559
O       22.38052521       8.60137641      20.20679489
C       34.11442177      15.14503963       0.38820955
O       32.97222565      14.96389132       0.29780325
O       35.25661790      15.32618794       0.47861585
C        9.51016452      20.34978521      45.43931209
O        9.69828911      21.47187374      45.66542372
O        9.32203994      19.22769668      45.21320047
C        0.59079098      45.54289484      16.12040629
O       49.91162113      45.59065063      15.18123235
O        1.26996084      45.49513904      17.05958024
C       46.44921879      31.22264001      42.40836546
O       47.03425237      30.32451939      41.96483977
O       45.86418520      32.12076064      42.85189116
C       26.31163174      20.02774358      26.94142735
O       26.17748639      20.96595844      26.27257915
O       26.44577709      19.08952872      27.61027554
C       44.94788218      14.97776334      15.09614656
O       44.12616092      15.69722593      14.70531700
O       45.76960344      14.25830074      15.48697612
C       48.96460836      39.89941810       1.03344014
O       49.63656279      39.08289631       0.55660747
O       48.29265392      40.71593990       1.51027281
C       37.81358054      33.27195629      27.31793534
O       38.13249185      32.17769606      27.53355101
O       37.49466923      34.36621652      27.10231967
C        4.74484716      12.06104562       2.69492953
O        4.83873306      11.48920609       1.69004895
O        4.65096126      12.63288515       3.69981011
C       25.70587481       0.34521340      44.98242842
O       26.06856086       0.77659202      43.96853921
O       25.34318876      49.91383478      45.99631762
C       34.59034350       9.02548288      43.84043287
O       34.02969671       8.10427591      43.41305376
O       35.15099029       9.94668984      44.26781198
C       22.85534638       0.96432985      14.62067502
O       23.28622866       1.81855343      15.27660378
O       22.42446411       0.11010627      13.96474626
C       10.45917468      26.96284505      47.90146290
O        9.32788036      26.81767495      48.11288379
O       11.59046901      27.10801515      47.69004201
C       37.01333709       7.55975039       6.11085958
O       38.11773063       7.84159808       6.32644431
O       35.90894355       7.27790269       5.89527485
C       34.57331732      16.92421903      31.94696973
O       35.08599466      16.20044444      31.19936537
O       34.06063998      17.64799363      32.69457409
C        7.05491962      31.93630188      47.94627053
O        6.58535348      31.05062206      48.52994758
O        7.52448576      32.82198170      47.36259348
C       14.99930985       8.62277466       0.40585070
O       15.51377103       7.58309700       0.40609740
O       14.48484867       9.66245232       0.40560400
C       43.65969275      24.01285651      44.95232293
O       42.90709866      24.75136745      44.46879038
O       44.41228684      23.27434556      45.43585548
C       31.98319999       2.41342312       8.36929421
O       31.80346575       2.85234525       9.42789847
O       32.16293423       1.97450100       7.31068996
C       24.36951291      34.30602059      40.46891194
O       23.62136912      34.04172212      39.62272804
O       25.11765671      34.57031906      41.31509584
C       15.12116218      46.23937642      29.54619729
O       16.10953718      46.70639872      29.93427592
O       14.13278717      45.77235411      29.15811865
C       16.56293532      34.47803114      11.27619790
O       16.77397119      34.06183521      10.21419752
O       16.35189945      34.89422707      12.33819828
C       40.09899504       8.92979740      21.08449777
O       39.61810545       9.65728321      20.31957320
O       40.57988464       8.20231159      21.84942233
C       35.82530080      37.91818075      25.29382038
O       36.05442437      38.94057916      25.79161941
O       35.59617724      36.89578234      24.79602134
C       41.41437590      45.63660179      23.79914610
O       41.88683087      46.69352758      23.87190708
O       40.94192092      44.57967599      23.72638512
C        1.97479265      13.39796051       8.57950882
O        2.44188042      14.17567814       7.85660890
O        1.50770487      12.62024288       9.30240874
C       47.72749654      21.48543465       7.97797163
O       47.33613888      22.16236298       8.83483055
O       48.11885420      20.80850632       7.12111270
C       32.24943237      25.56007321      40.77311509
O       31.61286331      24.59143311      40.81911697
O       32.88600144      26.52871332      40.72711320
C        0.41306655      41.32842588      17.72404642
O        1.11984804      41.36648904      18.64307368
O       49.70628506      41.29036272      16.80501915
C       32.04073598      16.68304918      27.70622988
O       31.66922158      17.68192382      27.24816164
O       32.41225037      15.68417455      28.16429813
C       47.91396073       2.98478472      30.43967965
O       47.64560310       2.52470542      31.47017042
O       48.18231836       3.44486402      29.40918888
C       45.80977019      19.19212214       5.75412549
O       46.64161502      19.99968208       5.79261071
O       44.97792535      18.38456220       5.71564028
C       45.25005038      10.77473765      40.56073137
O       44.46989670      10.75758080      41.41902378
O       46.03020407      10.79189450      39.70243895
C       13.35591763      48.91556620       5.43703657
O       13.95378299      49.55160118       6.20098455
O       12.75805227      48.27953122       4.67308859
C       19.97638712      17.85466847      11.75881571
O       20.95334926      17.74592747      11.14292581
O       18.99942498      17.96340946      12.37470562
C       15.00848340      22.17885516      48.13508874
O       15.77936401      21.53203749      47.55805323
O       14.23760278      22.82567283      48.71212425
C       16.48119913       1.85702772      13.38952485
O       17.30939843       1.07414385      13.17324085
O       15.65299983       2.63991159      13.60580885
C       19.36469658       0.68805656      26.85171200
O       19.93001759       0.44158489      25.86923356
O       18.79937557       0.93452824      27.83419043
C       10.87555816      38.46083223      46.79069832
O        9.78468968      38.10816070      46.61398171
O       11.96642663      38.81350375      46.96741493
C       36.85807067      13.55235755      11.03331190
O       35.84006389      13.38161110      10.50405975
O       37.87607746      13.72310400      11.56256404
C       31.27866876       7.76461307       9.12958832
O       30.36873009       7.66371602       9.84193052
O       32.18860743       7.86551012       8.41724612
C       40.53417384      23.28902488       2.52373351
O       40.66248265      24.10718697       3.33598202
O       40.40586504      22.47086278       1.71148500
C       41.62497239      12.40980311       0.19572446
O       40.59834032      12.94874428       0.16153389
O       42.65160446      11.87086194       0.22991504
C       11.22801565      44.48949542      46.54906911
O       10.19086394      44.48540427      46.02955049
O       12.26516737      44.49358656      47.06858772
C        8.20996347      38.58476924      21.77858279
O        7.25219386      38.33269143      22.38251503
O        9.16773307      38.83684706      21.17465054
C       23.06908747      20.28127583      43.41099089
O       22.80593856      19.35879927      44.06320990
O       23.33223637      21.20375239      42.75877187
C       38.75562034      29.57769022      20.75929565
O       39.86043450      29.47680740      20.42046186
O       37.65080618      29.67857304      21.09812943
C       16.63004007      38.38183210      31.60432116
O       16.13526082      37.44963579      32.08578095
O       17.12481931      39.31402841      31.12286136
C       21.81887063      46.07707388       3.10413263
O       22.09596953      45.92281880       4.21993797
O       21.54177174      46.23132896       1.98832728
C       18.22042495      36.55685378      15.33812725
O       17.21891972      36.87547714      15.82911241
O       19.22193019      36.23823043      14.84714209
C        0.62199320       6.49842076      31.01012600
O        0.96848905       5.73092840      31.80793306
O        0.27549735       7.26591311      30.21231894
C       39.53601856       7.10185922      10.56281619
O       39.54541022       6.29289023      11.39412899
O       39.52662689       7.91082820       9.73150338
C        6.23017451      49.77155890      35.43928819
O        5.16174838       0.22094620      35.39328103
O        7.29860064      49.32217160      35.48529534
C       13.97589109      12.67573865      37.74139635
O       13.25957124      13.05928857      38.56927032
O       14.69221094      12.29218872      36.91352237
C       47.58124076      22.85091906      16.64671629
O       48.39913339      22.73510700      15.83232129
O       46.76334813      22.96673112      17.46111129
C       27.64326910      39.43998625       8.18282408
O       28.67735820      39.81768822       8.54833872
O       26.60918000      39.06228428       7.81730944
C       43.24506676      13.26751036       1.48199442
O       42.70031839      13.95948481       2.23699148
O       43.78981514      12.57553590       0.72699736
C       32.07461059       5.35691708      24.41210532
O       31.64686421       5.72684826      23.39929539
O       32.50235697       4.98698590      25.42491525
C       19.21595943      11.34424491       3.84040673
O       19.14327351      10.19710610       3.68423597
O       19.28864535      12.49138372       3.99657748
C       42.32561271      15.50901282       3.19657713
O       41.34874555      16.11420499       3.35492163
O       43.30247987      14.90382064       3.03823264
C       46.50437637      47.85568273      46.41308174
O       47.61758711      47.53202965      46.45321334
O       45.39116563      48.17933580      46.37295015
C       20.45742498      10.37237835      37.61574079
O       20.48349843      10.36115312      36.45608818
O       20.43135153      10.38360358      38.77539339
C       12.54052691      18.85381766      33.91070686
O       12.79652114      18.13164446      33.03976897
O       12.28453267      19.57599087      34.78164475
C       49.43425903      15.06513491      22.44526324
O        0.57049070      14.84467635      22.36796113
O       48.29802736      15.28559348      22.52256535
C       20.05070378      24.00886264      12.08334223
O       19.86756894      23.49748717      11.05837552
O       20.23383863      24.52023811      13.10830894
C        2.86929055      21.23253642      27.90515947
O        2.99703460      21.37710204      26.76131410
O        2.74154649      21.08797080      29.04900485
C       18.70475673      36.05043423      19.69741764
O       18.16715701      35.94872541      20.72027728
O       19.24235644      36.15214305      18.67455799
C        7.68811630      29.30340939      10.16164668
O        7.19299508      28.35659630      10.61331022
O        8.18323753      30.25022248       9.70998315
C       19.34860265      43.50693409      16.97659032
O       20.01166052      42.81038920      17.62526550
O       18.68554478      44.20347897      16.32791514
C       33.07380027      17.88195905      30.96056034
O       32.89273455      17.74411321      29.82310100
O       33.25486599      18.01980489      32.09801967
C        1.20397348       2.93505261       9.98438933
O        0.04897992       2.92726403      10.09176359
O        2.35896703       2.94284119       9.87701508
C       21.41532627       7.17037218       9.25045025
O       22.48267954       6.90753011       9.62095132
O       20.34797300       7.43321425       8.87994917
C       31.48965244       6.75522790       3.88644032
O       31.20003350       7.64231476       4.57549603
O       31.77927137       5.86814104       3.19738460
C       20.50606236      17.16969086      31.61602762
O       20.10014366      16.29290931      32.25796541
O       20.91198107      18.04647241      30.97408983
C       31.02415366       1.20097750      43.21503557
O       31.54483618       0.75852929      44.15244118
O       30.50347113       1.64342570      42.27762995
C       48.75069974      48.69945439      15.14632633
O       49.62338402      49.04167324      15.82963330
O       47.87801547      48.35723554      14.46301937
C       39.87007860      21.86153763       7.71632777
O       39.59442589      22.05952457       6.60708625
O       40.14573132      21.66355069       8.82556929
C       13.65520346       2.80731723      45.03335031
O       13.13621603       3.66387384      45.61863898
O       14.17419088       1.95076062      44.44806164
C        8.02559990      22.74449239      23.21715954
O        6.99215627      22.83440266      22.69801562
O        9.05904353      22.65458211      23.73630346
C        3.91752872       8.77833503      25.58421592
O        3.46774830       9.82617299      25.37130002
O        4.36730914       7.73049707      25.79713183
C       43.95574438       2.47357220      24.53045399
O       44.51377849       1.50731796      24.21335675
O       43.39771028       3.43982645      24.84755124
C        5.43714710      12.48473847      32.04572025
O        4.54235889      11.83125465      31.70233571
O        6.33193531      13.13822230      32.38910479
C       37.39057565      43.16533835       6.23243367
O       37.03568598      44.14021590       6.75134320
O       37.74546531      42.19046080       5.71352415
C       12.34696999      39.48482370      33.30569523
O       12.06856572      38.38240075      33.07601133
O       12.62537425      40.58724666      33.53537913
C       36.18836226      10.39899446       3.42163108
O       36.79105059      10.67572047       4.37336082
O       35.58567394      10.12226844       2.46990134
C       38.18108961      27.75405197      44.07698570
O       38.09557936      26.65860732      44.44885802
O       38.26659987      28.84949662      43.70511338
C        4.97218803      22.91909212      16.63255286
O        5.44321978      22.08479862      17.28652796
O        4.50115628      23.75338563      15.97857776
C       26.31744817      24.11571767      45.42980109
O       25.21894632      23.97666836      45.08402807
O       27.41595002      24.25476698      45.77557412
C        5.61796594      10.28632520      14.28297739
O        4.87117738      11.15665112      14.10850778
O        6.36475449       9.41599928      14.45744699
C        2.62499421       4.46532811      29.59292591
O        3.41781602       4.28855456      28.76480473
O        1.83217240       4.64210166      30.42104710
C        7.30276239      12.38038063      21.13477385
O        6.91500459      11.41417638      21.64633346
O        7.69052019      13.34658488      20.62321424
C       27.09941876      21.33096585      16.66791148
O       27.62544395      21.05127762      15.67258642
O       26.57339356      21.61065408      17.66323655
C       45.65201277      24.46029587       9.59156256
O       46.37889718      25.11062338       8.96361894
O       44.92512836      23.80996836      10.21950618
C       13.43146918      13.64522430       2.92498858
O       13.98092191      13.77242333       3.93865622
O       12.88201644      13.51802528       1.91132093
C       27.79911351      22.91605464      29.59205011
O       26.96502227      22.85386922      30.39580679
O       28.63320474      22.97824006      28.78829344
C        9.69988502      30.83720457      11.13440613
O       10.39860976      30.33423459      10.35697129
O        9.00116028      31.34017455      11.91184098
C        3.28237308      29.61184382      49.09527902
O        2.52473570      30.06169088      48.34081019
O        4.04001047      29.16199676      49.84974786
C        8.64052922      39.16084228       3.72760061
O        7.90894354      39.85442842       3.15373593
O        9.37211490      38.46725615       4.30146529
C       24.83206806      20.52903816      15.87323216
O       25.52727429      20.80946116      16.75847294
O       24.13686183      20.24861516      14.98799138
C       49.69618499       0.09820301      12.78813438
O       48.96410531      49.22689372      12.56345803
O        0.42826467       0.96951231      13.01281072
C       43.18735777      22.90756800      47.56593944
O       43.62656538      23.30297475      48.56411286
O       42.74815015      22.51216126      46.56776602
C       10.34808579       0.58302461       4.50583889
O       11.39610962       1.00212012       4.23824774
O        9.30006197       0.16392911       4.77343003
C        7.24228447      43.82397500      43.06367019
O        6.63949716      42.90895169      42.68290807
O        7.84507178      44.73899832      43.44443231
C        5.08912464      45.04162373      12.94762548
O        5.66442133      45.99109536      13.28398443
O        4.51382796      44.09215209      12.61126653
C       38.63629508       7.37890514      23.77505420
O       38.01333132       7.56085290      22.81359116
O       39.25925884       7.19695737      24.73651723
C       13.57373683       6.03737922      36.09298847
O       13.77554184       6.87801277      36.86642881
O       13.37193181       5.19674566      35.31954812
C        3.46735244      29.64004970       9.16908287
O        2.69592929      28.85252138       8.80810439
O        4.23877559      30.42757802       9.53006136
C       16.82445910      27.33515760      13.74064023
O       17.18757773      27.25966800      12.64152869
O       16.46134046      27.41064719      14.83975177
C       36.21085050       2.97715521      26.66385522
O       36.06179337       4.04796090      27.08428016
O       36.35990764       1.90634951      26.24343028
C       47.72112352      40.81961417      10.15284883
O       47.76033419      41.97797448      10.10526828
O       47.68191286      39.66125385      10.20042938
C       42.86147651      33.82467707      22.74933023
O       41.82113195      33.31464418      22.69320854
O       43.90182107      34.33470997      22.80545192
C       32.76558905      25.61684594      43.07189981
O       32.06284973      25.18012889      43.88494080
O       33.46832838      26.05356299      42.25885881
C       24.58509810       0.28206227      20.47044608
O       24.62272247       1.42743484      20.65018503
O       24.54747374      49.13668970      20.29070713
C       18.04189429      47.03024634      27.34302096
O       17.90639425      47.04018467      26.19100491
O       18.17739433      47.02030801      28.49503700
C       24.58836817      19.27081302      36.68982236
O       23.80880889      20.11564218      36.84522831
O       25.36792745      18.42598386      36.53441640
C       20.48607180      11.43787792      43.36946230
O       19.32942624      11.41589863      43.28409284
O       21.64271737      11.45985721      43.45483177
C       41.74438403       5.87323761      34.95112938
O       41.48993555       5.92130493      33.82040151
O       41.99883251       5.82517029      36.08185724
C       33.12985801      49.08645809      19.51503378
O       33.31903608      47.95192875      19.66554901
O       32.94067994       0.22098744      19.36451856
C       36.83054414      14.31663646      36.25378907
O       36.78973097      15.07084059      35.37338551
O       36.87135730      13.56243233      37.13419262
C       13.47369587      36.88297724      22.36599178
O       13.53257277      36.40087114      21.31256536
O       13.41481896      37.36508334      23.41941820
C       32.25653797      11.30798689      11.00791482
O       31.14816032      11.03945511      10.79580711
O       33.36491561      11.57651866      11.22002253
C       21.26217027      23.21713856      23.06373959
O       20.47401860      22.64056833      23.68982563
O       22.05032193      23.79370879      22.43765355
C       11.72268931      37.44917860      35.50137281
O       11.55897294      38.09465978      34.55155651
O       11.88640568      36.80369742      36.45118911
C       33.97432811      34.19519126      20.36191151
O       33.78464787      33.13874075      19.92198684
O       34.16400835      35.25164178      20.80183618
C        1.47659669      45.74191293      17.51999560
O        2.06053949      46.23850999      16.64936240
O        0.89265390      45.24531588      18.39062881
C       22.32900154      44.84925261      39.35343258
O       23.41470446      44.92521228      38.95208572
O       21.24329862      44.77329294      39.75477943
C        5.07569207      42.52349723      44.03595709
O        5.25153668      43.30542347      43.19734513
O        4.89984746      41.74157099      44.87456906
C       27.50780781      18.10347959      17.20201948
O       27.06235504      18.27636625      18.25903511
O       27.95326058      17.93059293      16.14500385
C       18.74695368      49.05781110      24.66439697
O       18.38022486       0.15634195      24.73027533
O       19.11368249      47.95928026      24.59851861
C        0.02333969      12.49838757      33.49238064
O        0.46014097      11.69341693      34.20429842
O       49.58653841      13.30335820      32.78046286
C       36.78866224      41.26987638      33.58590332
O       36.12707693      42.22081855      33.64601868
O       37.45024755      40.31893420      33.52578797
C       31.18431735      21.38296301       6.63966913
O       31.01992881      22.48793257       6.32722925
O       31.34870589      20.27799345       6.95210901
C       10.93558043      24.82702423      35.14173776
O        9.94424755      24.30881593      35.44885220
O       11.92691332      25.34523252      34.83462332
C        5.06976202      15.44560444      45.92734791
O        4.28042902      16.16769874      45.47886909
O        5.85909501      14.72351015      46.37582673
C       38.86529810      46.61075569       8.09261756
O       38.60151223      45.96091325       9.01658824
O       39.12908397      47.26059814       7.16864688
C       48.94835474       5.21919758      22.27970502
O       49.21635230       5.23459739      23.40821739
O       48.68035718       5.20379776      21.15119266
C        4.84193901      19.61909277      39.70087540
O        5.98303251      19.42797177      39.78441213
O        3.70084551      19.81021376      39.61733867
C       49.14219912      10.62518365      46.10741716
O       48.40955358      10.40949699      46.98052070
O       49.87484466      10.84087031      45.23431363
C       19.20993377      44.72699197      40.07851898
O       19.43055048      43.60197900      39.90167414
O       18.98931706      45.85200493      40.25536383
C       39.49419485       0.80163928      15.06027144
O       38.49013165       1.38072684      15.10625698
O       40.49825806       0.22255171      15.01428591
C       13.97256879       1.16118483      47.93493060
O       13.95301828       2.07559852      47.22144242
O       13.99211930       0.24677114      48.64841878
C       44.25551348      29.03712173      18.57037053
O       43.19520877      29.50560659      18.52705940
O       45.31581819      28.56863686      18.61368167
C       28.68982287      18.89571072      45.05795833
O       27.80406901      18.31990964      45.53701283
O       29.57557673      19.47151180      44.57890382
C       23.71194106      26.20618436      30.69362370
O       23.12041164      25.86956864      31.63297602
O       24.30347049      26.54280008      29.75427137
C       47.60048963       6.42272996       8.46443986
O       46.92531381       6.15885131       7.55884300
O       48.27566545       6.68660862       9.37003671
C       24.02931314      47.10278917      34.42550946
O       23.92676091      46.90861301      35.56453477
O       24.13186537      47.29696534      33.28648415
C       40.90202967      27.07072846       9.21735452
O       41.87182353      27.62178883       8.89887007
O       39.93223582      26.51966810       9.53583898
C       36.94704679      26.66518944      44.94189893
O       37.65540429      26.30365176      45.78636336
O       36.23868930      27.02672712      44.09743451
C       46.75597767      46.51238438      17.23130742
O       47.33152826      45.50528191      17.22202689
O       46.18042708      47.51948686      17.24058794
C       19.44287010      29.44934770      10.01132098
O       20.01835802      29.02439339       9.09817943
O       18.86738219      29.87430201      10.92446253
C       32.89340752      36.17308609      44.05575303
O       33.92036761      36.70571396      44.14096177
O       31.86644743      35.64045821      43.97054430
C       24.06656155      24.80946056      21.10945020
O       24.29347361      25.94336508      21.20094579
O       23.83964949      23.67555603      21.01795461
C       42.64805122      48.95512954      43.13671932
O       43.22557044      49.96086800      43.11301890
O       42.07053201      47.94939108      43.16041975
C        2.29181817      23.49911154      34.57385511
O        3.02766176      24.10080045      35.23876463
O        1.55597459      22.89742263      33.90894559
C       33.15920746      27.16444165       5.05113098
O       33.05525920      27.69052763       4.02252596
O       33.26315572      26.63835566       6.07973601
C        8.04414615      20.30731614      17.46277453
O        7.74992187      21.42276510      17.58445322
O        8.33837043      19.19186719      17.34109584
C       28.27858081      24.79349323      12.22364519
O       28.36676950      25.91480151      12.50735367
O       28.19039212      23.67218495      11.93993672
C       41.13231814      34.14030247      15.18282269
O       41.02207874      35.19297025      14.70812508
O       41.24255754      33.08763469      15.65752030
C       26.50296120       9.51499549      17.81957461
O       25.57959966      10.21376763      17.88828385
O       27.42632273       8.81622335      17.75086537
C       26.85570038      40.93488286      36.09574988
O       27.85691602      40.59243738      35.62046224
O       25.85448474      41.27732834      36.57103752
C        9.41738223      49.64023818       4.50557103
O       10.12608765      49.37078607       5.38348458
O        8.70867681      49.90969029       3.62765749
C       45.16029681      21.89145419      49.20368588
O       44.05541252      22.23594239      49.28216264
O       46.26518109      21.54696599      49.12520912
C        9.39751482       0.27205190      29.84499927
O        8.59604559      49.89914127      29.09387694
O       10.19898404       0.64496252      30.59612159
C        8.46842759      15.08597438       9.06930675
O        9.03867540      14.56094922       8.20630848
O        7.89817978      15.61099955       9.93230502
C        2.25863261      25.08317685      21.31081176
O        1.76264864      24.66322721      20.34995683
O        2.75461658      25.50312649      22.27166669
C       13.36662968      30.97458535      37.49319239
O       14.29460910      30.79327821      38.16519085
O       12.43865026      31.15589249      36.82119394
C       41.92341248      31.32284221      29.96112864
O       41.45751209      32.37324400      30.11985135
O       42.38931287      30.27244042      29.80240592
C        9.10563787      38.19416551      43.47928251
O        8.40378477      38.94716972      44.01405991
O        9.80749098      37.44116129      42.94450511
C       39.14157923      20.20656131      43.27051407
O       39.47880771      19.09849180      43.20680456
O       38.80435075      21.31463083      43.33422357
C        2.51109440       9.26481593       7.31218651
O        1.96083451       9.05485198       6.31282212
O        3.06135430       9.47477988       8.31155090
C        5.54496411      47.82925438      12.68664753
O        4.71100627      47.66152894      11.89798885
O        6.37892194      47.99697981      13.47530621
C       22.52383739      41.79875884      49.75397890
O       22.16450484      41.20527709      48.82432330
O       22.88316994      42.39224060       0.68363450
C       34.81883441      34.32438141       9.79274851
O       34.46921172      35.25826386       9.20010397
O       35.16845711      33.39049896      10.38539304
C       30.66289766      16.83954685      25.75860992
O       31.55518622      16.62435337      26.46791444
O       29.77060911      17.05474033      25.04930540
C       23.63368637       5.27303172       8.06851700
O       24.21470577       5.41020235       7.07393132
O       23.05266697       5.13586109       9.06310269
C       19.71840630      47.33018351      18.48223122
O       20.42590670      46.44545078      18.23264924
O       19.01090589      48.21491625      18.73181321
C        5.70990653      42.13998698      10.53252986
O        5.79941397      40.99830685      10.34771943
O        5.62039909      43.28166711      10.71734029
C       46.55605578      21.35918855       5.59162165
O       47.44563798      20.97368342       4.95473130
O       45.66647358      21.74469367       6.22851199
C       26.41840695      21.66970004      25.13288186
O       25.37158319      21.27015839      25.43309261
O       27.46523070      22.06924170      24.83267112
C        3.31547127      21.15749643       5.43737874
O        3.41487370      20.86204432       6.55470914
O        3.21606883      21.45294853       4.32004835
C       24.62014332      26.30023860      18.07351301
O       25.18454008      25.30379289      18.25831626
O       24.05574657      27.29668431      17.88870975
C       16.23002729      33.20075792      45.51029137
O       16.25559900      32.59849322      44.51921956
O       16.20445558      33.80302261      46.50136318
C        4.32239283      22.36585402      42.12656632
O        3.50462915      21.54591859      42.19415665
O        5.14015651      23.18578945      42.05897598
C       49.77086979       6.42674862      47.93827231
O        0.52058131       5.55387011      47.79124931
O       49.02115828       7.29962712      48.08529531
C       45.46449722      19.80108671      11.14102938
O       44.80160881      18.89357298      11.42842767
O       46.12738564      20.70860044      10.85363110
C       47.43138968      36.20740687      48.70593913
O       48.16900967      37.09240357      48.57067055
O       46.69376969      35.32241016      48.84120771
C        7.04022948      44.97855325       4.58090982
O        6.18689714      45.52550534       4.01675796
O        7.89356182      44.43160116       5.14506169
C        1.16689843       8.07437715      20.76422223
O        0.39818175       7.23935305      20.52461960
O        1.93561510       8.90940126      21.00382486
C        4.80582359      16.20578995      13.55754586
O        5.33442306      16.97261042      12.86604823
O        4.27722412      15.43896949      14.24904349
C       41.56675696      28.90285754      24.41712509
O       41.20192482      29.98825492      24.23162565
O       41.93158909      27.81746016      24.60262453
C       29.69567017      21.68922599      43.77570317
O       29.17848998      20.68637010      44.04478442
O       30.21285035      22.69208188      43.50662192
C       15.36059908      16.46575446      12.64875019
O       15.33256082      16.20378045      11.51906728
O       15.38863734      16.72772847      13.77843310
C       26.79574645      37.58573447       3.89581520
O       27.62829076      37.74837260       3.10460169
O       25.96320215      37.42309634       4.68702871
C       23.33564248      22.46434695      30.16771676
O       24.14090704      21.63677000      30.27846597
O       22.53037793      23.29192390      30.05696755
C       46.23435626      16.73369853      25.83346257
O       45.23634324      16.25991118      26.18715108
O       47.23236928      17.20748588      25.47977407
C       41.92192823      48.98889687      20.98005506
O       40.81956390      49.16483602      21.29539344
O       43.02429256      48.81295771      20.66471667
C       22.13645094       0.16733744      21.38893249
O       21.14206449       0.02262228      20.80940415
O       23.13083740       0.31205260      21.96846084
C        9.53168013      44.68498708      36.37788485
O        8.47579733      44.42055905      35.97689941
O       10.58756293      44.94941512      36.77887029
C       10.54811132      18.39622951       0.47624590
O       11.18187553      19.34029636       0.70576868
O        9.91434712      17.45216265       0.24672311
C       34.18446475      39.19966636      39.62146491
O       33.67035528      40.21412746      39.39307899
O       34.69857422      38.18520527      39.84985084
C       21.54857748       9.46892852       8.69306045
O       21.31583864       8.72435595       9.55157330
O       21.78131632      10.21350109       7.83454759
C        3.74238917      26.54785363      39.87479977
O        2.90484105      27.28276410      39.55227883
O        4.57993729      25.81294316      40.19732071
C       12.71408747      16.26425739      35.94718917
O       12.67278729      17.21314133      36.61315731
O       12.75538765      15.31537345      35.28122103
C       49.58443342      27.02724011      13.94543477
O        0.08520943      26.34005659      14.73448621
O       49.08365740      27.71442364      13.15638332
C       41.56702810      41.18852326      26.13986158
O       42.43335244      40.57281616      26.60460550
O       40.70070376      41.80423036      25.67511766
C       38.22321807      38.75870939       3.86147841
O       37.96322144      39.71061664       4.47129341
O       38.48321470      37.80680214       3.25166340
C       48.46296163      42.36444853      40.11034734
O       49.34768951      42.85904677      39.54622930
O       47.57823375      41.86985029      40.67446537
C       35.98990891      49.72397815      45.46175425
O       36.19347626      49.78320650      44.32129279
O       35.78634157      49.66474980      46.60221570
C       18.21529457       6.61240762      25.15235071
O       17.61049077       7.43717221      24.60501558
O       18.82009838       5.78764304      25.69968583
C       21.26734875       2.79714642      32.35266992
O       20.37873790       2.15411535      32.73013756
O       22.15595959       3.44017748      31.97520228
C       43.38069178      33.38468907      47.64724285
O       42.42185627      33.74907155      47.10552349
O       44.33952730      33.02030658      48.18896221
C       10.40216079       9.51500258      11.68840389
O        9.90763517       8.48285852      11.49939842
O       10.89668640      10.54714664      11.87740935
C        4.04840927      44.10878487      45.90044155
O        4.03012392      45.24554727      45.67014412
O        4.06669463      42.97202248      46.13073898
C        8.10300156      42.61916600      26.60017396
O        8.63407342      41.66863444      27.00023949
O        7.57192971      43.56969757      26.20010843
C       13.12959851      34.22520792       0.73425128
O       14.18002436      33.80538883       0.99107313
O       12.07917266      34.64502701       0.47742943
C       49.88665401      10.58589787      18.60471798
O       48.96292614      11.17103573      18.99193949
O        0.81038189      10.00076001      18.21749648
C       13.44018157      49.05756359      43.07325471
O       13.66225824       0.19458955      43.01448464
O       13.21810489      47.92053764      43.13202478
C       20.29786004      46.95306101      41.00924508
O       21.25999675      47.59323148      40.90887212
O       19.33572334      46.31289054      41.10961804
C       37.25862302       9.60706159      28.86630187
O       37.20633769      10.22715849      27.88735035
O       37.31090834       8.98696470      29.84525339
C       38.84129167      33.54924451      46.68092960
O       38.61470746      33.44558378      47.81385239
O       39.06787589      33.65290523      45.54800681
C       20.53932605      43.67952295      10.54584318
O       19.96614636      44.67972990      10.67488233
O       21.11250573      42.67931599      10.41680404
C       46.23955252      36.59994202      15.10733534
O       47.34794398      36.94205034      15.11283627
O       45.13116106      36.25783369      15.10183441
C       46.72852853      21.30267914      14.20368490
O       47.76211464      21.75661074      13.93676573
O       45.69494241      20.84874753      14.47060408
C        1.50346807      30.43209780      38.51712716
O        1.86356520      30.75897181      37.46399685
O        1.14337093      30.10522380      39.57025746
C       40.69484821      18.49728011      23.80574025
O       40.58893291      19.58217480      24.20245861
O       40.80076352      17.41238542      23.40902189
C       35.91430361       7.02502916      48.70462140
O       35.14938041       7.18844886      49.56123479
O       36.67922682       6.86160945      47.84800802
C       12.13765968      23.93225787      32.14802647
O       11.32711256      23.82894684      31.32465523
O       12.94820679      24.03556890      32.97139771
C       15.23626132      22.87584098       5.29769272
O       15.87842735      21.95836172       4.99527813
O       14.59409529      23.79332025       5.60010731
C       37.63392450      23.45854353      23.48521265
O       38.39352326      24.22324640      23.05644787
O       36.87432575      22.69384065      23.91397743
C       22.71547623      13.26311121      22.63202944
O       22.86906853      12.70522828      21.62665586
O       22.56188394      13.82099414      23.63740302
C       33.38864553      43.59597378      37.43665846
O       32.66746767      42.84633418      37.95002281
O       34.10982338      44.34561338      36.92329411
C       21.92372318      19.72009358      42.35119359
O       22.81077627      18.98890941      42.19593086
O       21.03667008      20.45127776      42.50645631
C       32.06470292      42.86839506      39.77281985
O       32.23410748      43.45463014      40.75934432
O       31.89529836      42.28215998      38.78629539
C       33.46774953      18.76881258      31.88810590
O       33.61964646      17.62557453      31.76347013
O       33.31585259      19.91205063      32.01274167
C       13.24468845       7.88986647      11.97230640
O       13.05697306       8.01112721      10.83403633
O       13.43240384       7.76860573      13.11057648
C        4.62554180      26.95285914      10.65245165
O        4.07605950      27.61636358       9.87564340
O        5.17502409      26.28935469      11.42925990
C       43.71906778      19.43960113       9.74245777
O       42.77571434      19.36444106      10.41330445
O       44.66242121      19.51476121       9.07161110
C       48.12710695      24.87651709      21.13225767
O       49.25868980      24.79865974      21.37527718
O       46.99552410      24.95437445      20.88923815
C       45.92444163      37.11404694      33.64808711
O       44.86738670      37.56301535      33.81137287
O       46.98149656      36.66507852      33.48480134
C       25.54332876      11.99855194       6.26164060
O       24.82506138      12.27736915       5.39448840
O       26.26159615      11.71973473       7.12879279
C        5.08008087      16.06644099      45.64565522
O        5.00933441      15.73862522      46.75611988
O        5.15082732      16.39425677      44.53519056
C        8.31861723      14.84668670      30.70827472
O        8.50910540      15.26435977      31.77357443
O        8.12812907      14.42901364      29.64297501
C       32.32618240      38.80801997      20.41338581
O       31.44118483      38.36922323      21.02152784
O       33.21117997      39.24681671      19.80524379
C       28.53567726      28.94887925       4.38903512
O       27.46045788      29.35174626       4.22410648
O       29.61089665      28.54601225       4.55396375
C       21.96609401      35.62393310      25.54679097
O       21.76121843      36.73233451      25.27279772
O       22.17096958      34.51553168      25.82078422
C       27.45561751      31.44748284      45.22470158
O       28.36135787      31.00647898      44.64959291
O       26.54987715      31.88848671      45.79981026
C       44.31181708      37.71978999      34.04971104
O       44.40393826      37.96930735      35.17880571
O       44.21969589      37.47027264      32.92061637
C       12.15391465      46.82518230      26.41915543
O       12.91774528      46.40481586      25.65400522
O       11.39008403      47.24554874      27.18430563
C       44.16474789      32.16727200       5.44061238
O       43.26327024      31.45059294       5.30165489
O       45.06622553      32.88395105       5.57956987
C        1.88551032      11.37215221      40.16080283
O        2.21696200      10.57341482      39.38765448
O        1.55405865      12.17088959      40.93395119
