32
Lattice="7.242524 0.0 0.0 0.0 7.242524 0.0 0.0 0.0 7.242524" Properties=species:S:1:pos:R:3:spacegroup_kinds:I:1 spacegroup="P 1" unit_cell=conventional occupancy="_JSON {\"0\": {\"Cu\": 1}, \"1\": {\"Cu\": 1}, \"2\": {\"Cu\": 1}, \"3\": {\"Cu\": 1}}" pbc="T T T"
Cu       0.00000000       0.00000000       0.00000000        0
Cu       0.00000000       1.81063100       1.81063100        1
Cu       1.81063100       0.00000000       1.81063100        2
Cu       1.81063100       1.81063100       0.00000000        3
Cu       0.00000000       0.00000000       3.62126200        0
Cu       0.00000000       1.81063100       5.43189300        1
Cu       1.81063100       0.00000000       5.43189300        2
Cu       1.81063100       1.81063100       3.62126200        3
Cu       0.00000000       3.62126200       0.00000000        0
Cu       0.00000000       5.43189300       1.81063100        1
Cu       1.81063100       3.62126200       1.81063100        2
Cu       1.81063100       5.43189300       0.00000000        3
Cu       0.00000000       3.62126200       3.62126200        0
Cu       0.00000000       5.43189300       5.43189300        1
Cu       1.81063100       3.62126200       5.43189300        2
Cu       1.81063100       5.43189300       3.62126200        3
Cu       3.62126200       0.00000000       0.00000000        0
Cu       3.62126200       1.81063100       1.81063100        1
Cu       5.43189300       0.00000000       1.81063100        2
Cu       5.43189300       1.81063100       0.00000000        3
Cu       3.62126200       0.00000000       3.62126200        0
Cu       3.62126200       1.81063100       5.43189300        1
Cu       5.43189300       0.00000000       5.43189300        2
Cu       5.43189300       1.81063100       3.62126200        3
Cu       3.62126200       3.62126200       0.00000000        0
Cu       3.62126200       5.43189300       1.81063100        1
Cu       5.43189300       3.62126200       1.81063100        2
Cu       5.43189300       5.43189300       0.00000000        3
Cu       3.62126200       3.62126200       3.62126200        0
Cu       3.62126200       5.43189300       5.43189300        1
Cu       5.43189300       3.62126200       5.43189300        2
Cu       5.43189300       5.43189300       3.62126200        3
