18
Lattice="5.188817 0.0 0.0 0.0 5.188817 0.0 0.0 0.0 9.126155" Properties=species:S:1:pos:R:3 pbc="T T T" CH3NH3I alpha-prime tetragonal P4/nmm Z=2 T=410K a=5.18882 c=9.12616
I      1.29720437     1.29720437     2.28153882
I      3.89161311     3.89161311     6.84461646
C      1.29720437     1.29720437     7.58961646
N      1.29720437     1.29720437     6.09961646
H      2.32468360     1.29720437     7.95346594
H      0.78346476     2.18702748     7.95346594
H      0.78346476     0.40738126     7.95346594
H      1.78114607     2.13541598     5.74733571
H      0.32932097     1.29720437     5.74733571
H      1.78114607     0.45899276     5.74733571
C      3.89161311     3.89161311     1.53653882
N      3.89161311     3.89161311     3.02653882
H      4.91909234     3.89161311     1.17268934
H      3.37787350     4.78143622     1.17268934
H      3.37787350     3.00179000     1.17268934
H      4.37555481     4.72982472     3.37881957
H      2.92372971     3.89161311     3.37881957
H      4.37555481     3.05340150     3.37881957

